objective value:                                56212
t_x1                                                1 	(obj:971)
t_x2                                                1 	(obj:203)
t_x3                                                1 	(obj:530)
t_x4                                                1 	(obj:271)
t_x5                                                1 	(obj:566)
t_x6                                                1 	(obj:477)
t_x7                                                1 	(obj:268)
t_x8                                                1 	(obj:421)
t_x10                                               1 	(obj:410)
t_x12                                               1 	(obj:1386)
t_x13                                               1 	(obj:424)
t_x14                                               1 	(obj:350)
t_x15                                               1 	(obj:839)
t_x16                                               1 	(obj:580)
t_x18                                               1 	(obj:480)
t_x19                                               1 	(obj:534)
t_x20                                               1 	(obj:387)
t_x21                                               1 	(obj:633)
t_x22                                               1 	(obj:720)
t_x23                                               1 	(obj:759)
t_x25                                               1 	(obj:681)
t_x26                                               1 	(obj:593)
t_x27                                               1 	(obj:591)
t_x29                                               1 	(obj:933)
t_x32                                               1 	(obj:354)
t_x33                                               1 	(obj:667)
t_x34                                               1 	(obj:339)
t_x36                                               1 	(obj:426)
t_x37                                               1 	(obj:61)
t_x39                                               1 	(obj:284)
t_x40                                               1 	(obj:519)
t_x41                                               1 	(obj:433)
t_x42                                               1 	(obj:424)
t_x43                                               1 	(obj:427)
t_x44                                               1 	(obj:639)
t_x45                                               1 	(obj:440)
t_x46                                               1 	(obj:438)
t_x49                                               1 	(obj:458)
t_x50                                               1 	(obj:643)
t_x51                                               1 	(obj:430)
t_x53                                               1 	(obj:514)
t_x54                                               1 	(obj:475)
t_x58                                               1 	(obj:613)
t_x59                                               1 	(obj:660)
t_x60                                               1 	(obj:563)
t_x61                                               1 	(obj:217)
t_x64                                               1 	(obj:464)
t_x65                                               1 	(obj:428)
t_x67                                               1 	(obj:713)
t_x69                                               1 	(obj:540)
t_x73                                               1 	(obj:918)
t_x74                                               1 	(obj:399)
t_x75                                               1 	(obj:494)
t_x82                                               1 	(obj:708)
t_x84                                               1 	(obj:412)
t_x86                                               1 	(obj:514)
t_x90                                               1 	(obj:293)
t_x92                                               1 	(obj:494)
t_x93                                               1 	(obj:636)
t_x94                                               1 	(obj:401)
t_x95                                               1 	(obj:956)
t_x96                                               1 	(obj:583)
t_x100                                              1 	(obj:532)
t_x102                                              1 	(obj:531)
t_x103                                              1 	(obj:167)
t_x106                                              1 	(obj:426)
t_x116                                              1 	(obj:592)
t_x221                                              1 	(obj:570)
t_x275                                              1 	(obj:381)
t_x895                                              1 	(obj:349)
t_x922                                              1 	(obj:292)
t_x1194                                             1 	(obj:437)
t_x1275                                             1 	(obj:262)
t_x1293                                             1 	(obj:939)
t_x1453                                             1 	(obj:596)
t_x1467                                             1 	(obj:691)
t_x1473                                             1 	(obj:467)
t_x1520                                             1 	(obj:592)
t_x2390                                             1 	(obj:411)
t_x2702                                             1 	(obj:432)
t_x2763                                             1 	(obj:501)
t_x2817                                             1 	(obj:820)
t_x2838                                             1 	(obj:376)
t_x2872                                             1 	(obj:526)
t_x2884                                             1 	(obj:664)
t_x3203                                             1 	(obj:233)
t_x3403                                             1 	(obj:554)
t_x3518                                             1 	(obj:626)
t_x3932                                             1 	(obj:745)
t_x3984                                             1 	(obj:780)
t_x4093                                             1 	(obj:947)
t_x4686                                             1 	(obj:269)
t_x4702                                             1 	(obj:942)
t_x4893                                             1 	(obj:367)
t_x5032                                             1 	(obj:778)
t_x5266                                             1 	(obj:230)
t_x5425                                             1 	(obj:483)
t_x6046                                             1 	(obj:557)
t_x6958                                             1 	(obj:782)
t_x7125                                             1 	(obj:330)
t_x7665                                             1 	(obj:449)
t_x7731                                             1 	(obj:655)
t_x7911                                             1 	(obj:385)
t_x8131                                             1 	(obj:1562)
